NAME: Perylene_2H12
SCANNUMBER: -1
RETENTIONTIME: -1
RETENTIONINDEX: 2876
PRECURSORMZ: 264.16858
PRECURSORTYPE: [M]+
IONMODE: positive
SPECTRUMTYPE: Centroid
FORMULA: C20H12
INCHIKEY: CSHWQDPOILHKBI-AQZSQYOVSA-N
INCHI: 
SMILES: [2H]C1=C(C2=C3C(=C1[2H])C4=C(C(=C(C5=C4C(=C(C(=C5[2H])[2H])[2H])C3=C(C(=C2[2H])[2H])[2H])[2H])[2H])[2H])[2H]
AUTHORS: Price et al., RECETOX, Masaryk University (CZ)
COLLISIONENERGY: 70eV
INSTRUMENT: Q Exactive GC Orbitrap GC-MS/MS
INSTRUMENTTYPE: GC-EI-Orbitrap
IONIZATION: EI+
LICENSE: CC BY-NC
COMMENT: 
PRECURSOR_MZ: 264.16858
FINGERPRINT: [0 0 0 ... 0 1 0]
CHARGE: 1
PARENT_MASS: 263.16130354800924
NUM PEAKS: 33
116.05576	29277.0
118.06992	49651.0
128.0558	37001.0
130.06996	78584.0
130.57159	17533.0
132.08408	65686.0
132.5858	12593.0
207.0322	39569.0
222.08282	13141.0
223.06346	20762.0
225.04277	18058.0
227.02202	26370.0
232.11204	30354.0
236.1405	22796.0
252.09322	8564.0
256.11212	41765.0
257.11557	8688.0
258.12622	21742.0
259.13446	11564.0
260.14041	248997.0
261.14358	51721.0
262.15466	33597.0
263.16254	63732.0
264.16858	829577.0
265.01968	18286.0
265.17191	176460.0
266.17523	18876.0
283.03036	10261.0
287.00632	11352.0
295.10288	26727.0
299.06152	33379.0
359.0282	67046.0
400.98447	17406.0

NAME: Perylene
SCANNUMBER: -1
RETENTIONTIME: -1
RETENTIONINDEX: 2886.9
PRECURSORMZ: 252.09323
PRECURSORTYPE: [M]+
IONMODE: positive
SPECTRUMTYPE: Centroid
FORMULA: C20H12
INCHIKEY: CSHWQDPOILHKBI-UHFFFAOYSA-N
INCHI: 
SMILES: C1=CC2=C3C(=C1)C1=CC=CC4=C1C(=CC=C4)C3=CC=C2
AUTHORS: Price et al., RECETOX, Masaryk University (CZ)
COLLISIONENERGY: 70eV
INSTRUMENT: Q Exactive GC Orbitrap GC-MS/MS
INSTRUMENTTYPE: GC-EI-Orbitrap
IONIZATION: EI+
LICENSE: CC BY-NC
COMMENT: 
PRECURSOR_MZ: 252.09323
FINGERPRINT: [0 0 0 ... 0 0 0]
CHARGE: 1
PARENT_MASS: 251.08595354800926
NUM PEAKS: 19
112.03071	49892.0
113.03854	87510.0
124.03076	100146.0
124.53242	24923.0
125.03855	179254.0
125.54019	49039.0
126.04636	131679.0
126.54804	36313.0
222.04645	28905.0
224.06192	55632.0
226.04175	37413.0
246.04646	23286.0
248.06204	140007.0
249.07072	62236.0
250.07765	641789.0
251.07967	137600.0
252.09323	1955166.0
253.09656	402252.0
254.09985	39987.0

NAME: Phenanthrene_2H10
SCANNUMBER: -1
RETENTIONTIME: -1
RETENTIONINDEX: 1827.1
PRECURSORMZ: 188.14029
PRECURSORTYPE: [M]+
IONMODE: positive
SPECTRUMTYPE: Centroid
FORMULA: C14H10
INCHIKEY: YNPNZTXNASCQKK-LHNTUAQVSA-N
INCHI: 
SMILES: [2H]C1=C(C(=C2C(=C1[2H])C(=C(C3=C(C(=C(C(=C32)[2H])[2H])[2H])[2H])[2H])[2H])[2H])[2H]
AUTHORS: Price et al., RECETOX, Masaryk University (CZ)
COLLISIONENERGY: 70eV
INSTRUMENT: Q Exactive GC Orbitrap GC-MS/MS
INSTRUMENTTYPE: GC-EI-Orbitrap
IONIZATION: EI+
LICENSE: CC BY-NC
COMMENT: 
PRECURSOR_MZ: 188.14029
FINGERPRINT: [0 0 0 ... 0 1 0]
CHARGE: 1
PARENT_MASS: 187.13301354800925
NUM PEAKS: 17
76.02767	185421.0
78.0418	256858.0
80.05586	881271.0
90.04181	200162.0
92.06206	537968.0
94.06999	628791.0
156.08402	836513.0
158.09808	477819.0
160.11218	2421148.0
161.11554	310248.0
176.10866	308983.0
184.11224	2784543.0
185.11562	445833.0
186.12637	1283282.0
188.14029	15115275.0
189.1436	2312386.0
190.14688	151400.0

NAME: Phenanthrene
SCANNUMBER: -1
RETENTIONTIME: -1
RETENTIONINDEX: 1832.9
PRECURSORMZ: 178.0775
PRECURSORTYPE: [M]+
IONMODE: positive
SPECTRUMTYPE: Centroid
FORMULA: C14H10
INCHIKEY: YNPNZTXNASCQKK-UHFFFAOYSA-N
INCHI: 
SMILES: C1=CC2=C(C=C1)C1=C(C=CC=C1)C=C2
AUTHORS: Price et al., RECETOX, Masaryk University (CZ)
COLLISIONENERGY: 70eV
INSTRUMENT: Q Exactive GC Orbitrap GC-MS/MS
INSTRUMENTTYPE: GC-EI-Orbitrap
IONIZATION: EI+
LICENSE: CC BY-NC
COMMENT: 
PRECURSOR_MZ: 178.0775
FINGERPRINT: [0 0 0 ... 0 0 0]
CHARGE: 1
PARENT_MASS: 177.07022354800924
NUM PEAKS: 19
74.01508	137808.0
75.02295	278714.0
76.03075	608417.0
87.02295	304266.0
88.03076	497050.0
89.03857	441168.0
98.01511	150478.0
150.04633	868927.0
151.05415	546351.0
152.0619	2275502.0
153.06528	276320.0
169.06468	272559.0
174.04636	365846.0
175.05423	272039.0
176.062	3370523.0
177.06982	1751846.0
178.0775	13724432.0
179.08078	2250119.0
180.08412	138203.0

NAME: Anthracene
SCANNUMBER: -1
RETENTIONTIME: -1
RETENTIONINDEX: 1844.4
PRECURSORMZ: 178.07754
PRECURSORTYPE: [M]+
IONMODE: positive
SPECTRUMTYPE: Centroid
FORMULA: C14H10
INCHIKEY: MWPLVEDNUUSJAV-UHFFFAOYSA-N
INCHI: 
SMILES: C1=CC2=CC3=C(C=CC=C3)C=C2C=C1
AUTHORS: Price et al., RECETOX, Masaryk University (CZ)
COLLISIONENERGY: 70eV
INSTRUMENT: Q Exactive GC Orbitrap GC-MS/MS
INSTRUMENTTYPE: GC-EI-Orbitrap
IONIZATION: EI+
LICENSE: CC BY-NC
COMMENT: 
PRECURSOR_MZ: 178.07754
FINGERPRINT: [0 0 0 ... 0 0 0]
CHARGE: 1
PARENT_MASS: 177.07026354800925
NUM PEAKS: 21
74.0151	117371.0
75.02296	245305.0
76.03077	632686.0
87.02297	236214.0
88.03078	347832.0
89.0386	507288.0
91.05425	130861.0
126.04636	128356.0
149.04478	126331.0
150.04637	641829.0
151.05415	403195.0
152.06195	1369833.0
153.06534	175290.0
169.06471	228827.0
174.04639	255716.0
175.05423	198784.0
176.06204	2563053.0
177.06984	1182037.0
178.07754	11002398.0
179.08081	1778803.0
180.08418	132922.0

